NAME : 20_2_01.46339.tour
COMMENT : Cost = 0_46339
COMMENT : Found by LKH [Keld Helsgaun] Thu Sep 14 11:07:25 2017
TYPE : TOUR
DIMENSION : 22
TOUR_SECTION
1
16
12
15
8
21
14
7
9
4
20
13
10
17
19
18
22
3
5
6
11
2
-1
EOF
